Route #1: 341 340 339 338 378 379 380 381 382 383 384 385 386 387 388 389 390 391 392 393 394 395 396 397 398 399 400 361 362 363 364 365 366 367 368 369 370 371 372 373 374 375 376 377 337 297
Route #2: 263 303 304 302 342 343 344 345 346 347 348 349 350 351 352 353 354 355 356 357 358 359 360 321 322 323 324 325 326 327 328 329 330 331 332 333 334 335 336 296 295 292 293 294
Route #3: 175 215 216 256 257 217 218 219 259 258 298 299 300 301 261 260 220 221 222 262 223 224 264 265 305 306 307 308 309 310 311 271 270 269 266 267 268 228 227 225 226 186 187 188
Route #4: 195 196 198 197 237 238 240 239 279 280 241 242 282 283 284 285 286 287 288 289 290 281 320 319 312 313 314 315 316 317 318 278 277 272 273 274 275 276 236 235 201 202 162 163 164 165
Route #5: 88 89 129 130 131 171 172 173 174 169 170 210 211 212 214 213 253 254 255 252 251 291 250 247 248 249 209 208 207 205 204 203 243 244 245 246 206 166 167 168 128 127 126 85
Route #6: 53 93 92 132 133 134 135 136 176 177 178 179 180 181 182 183 184 185 145 143 144 146 147 148 149 150 151 191 190 189 229 230 231 232 233 234 194 193 192 152 153 154 155 156 116 114 115 76
Route #7: 6 5 45 46 86 87 90 91 94 95 96 97 137 138 139 140 141 142 102 103 104 105 106 107 108 109 110 111 112 113 73 72 68 69 70 71 74 75 35 36 37
Route #8: 10 11 12 13 14 15 16 17 18 19 20 21 22 23 24
Route #9: 38 39 3 4 2 42 43 44 41 81 82 83 84 124 125 123 122 121 161 200 199 159 157 158 160 120 119 118 117 77 78 79 80 40 1
Route #10: 8 9 7 47 48 49 50 51 52 54 55 56 57 59 60 58 98 99 100 101 61 62 63 64 65 66 67 27 25 26 28 29 30 31 32 33 34
Cost 12949.432523002073